
Gurobi 9.1.1 (mac64, gurobi_cl) logging started Sat Mar  6 17:26:25 2021

Academic license - for non-commercial use only - expires 2021-04-06
Using license file /Users/agnese/gurobi.lic
Set parameter LogFile to value gurobi.log

Gurobi Optimizer version 9.1.1 build v9.1.1rc0 (mac64)
Copyright (c) 2020, Gurobi Optimization, LLC

Read LP format model from file /Users/agnese/Documents/KTH-Work/GitHub_repositories/KTH-dESA/GLUCOSE/results/FINAL_2060/4.5_Total/TOTAL_new3/GLUCOSE_4.FinalTotal+HPnewlimit_new3.lp
Reading time = 5.33 seconds
cost: 1097424 rows, 1087932 columns, 1788359 nonzeros
Thread count: 2 physical cores, 4 logical processors, using up to 4 threads
Optimize a model with 1097424 rows, 1087932 columns and 1788359 nonzeros
Model fingerprint: 0x0c2c843d
Coefficient statistics:
  Matrix range     [2e-08, 4e+11]
  Objective range  [7e-08, 4e+11]
  Bounds range     [0e+00, 0e+00]
  RHS range        [1e-04, 1e+06]
Warning: Model contains large matrix coefficient range
Warning: Model contains large objective coefficients
         Consider reformulating model or setting NumericFocus parameter
         to avoid numerical issues.

Concurrent LP optimizer: dual simplex and barrier
Showing barrier log only...

Presolve removed 1071599 rows and 1069788 columns
Presolve time: 1.78s
Presolved: 25825 rows, 18337 columns, 353601 nonzeros

Ordering time: 1.46s

Barrier statistics:
 AA' NZ     : 1.307e+06
 Factor NZ  : 7.110e+06 (roughly 80 MBytes of memory)
 Factor Ops : 5.267e+09 (roughly 1 second per iteration)
 Threads    : 1

                  Objective                Residual
Iter       Primal          Dual         Primal    Dual     Compl     Time
   0   1.33157301e+21 -3.84956478e+17  2.46e+09 2.08e+12  9.26e+16     5s
   1   7.16754808e+20 -5.26222988e+17  2.42e+09 1.98e+12  9.03e+16     5s
   2   7.01674426e+20 -9.22113027e+17  1.81e+09 1.77e+12  7.38e+16     6s
   3   3.19266354e+20 -3.38308637e+18  7.37e+08 7.27e+11  3.73e+16     7s
   4   1.13782724e+20 -4.65706074e+18  2.33e+08 8.35e+10  1.31e+16     8s
   5   8.48420861e+18 -3.96131872e+18  1.70e+07 6.00e+07  1.06e+15     8s
   6   1.52795824e+18 -2.53504043e+18  3.07e+06 1.56e+07  2.20e+14     9s
   7   8.88404737e+17 -1.90347649e+18  1.82e+06 9.82e+06  1.34e+14    10s
   8   2.19885027e+17 -9.20737954e+17  4.25e+05 2.16e+06  3.97e+13    11s
   9   1.08044074e+17 -6.29785444e+17  2.09e+05 1.33e+06  2.25e+13    12s
  10   2.50999000e+16 -2.02092229e+17  4.82e+04 3.61e+05  6.58e+12    13s
  11   9.15643167e+15 -5.32587592e+16  1.71e+04 7.86e+04  1.95e+12    14s
  12   4.09534489e+15 -1.89152725e+16  7.66e+03 2.05e+04  7.82e+11    14s
  13   7.26857547e+14 -7.48095351e+15  1.29e+03 6.74e+03  2.19e+11    15s
  14   1.68585341e+14 -1.81556028e+15  2.56e+02 9.99e+02  4.96e+10    16s
  15   6.00221469e+13 -5.37457754e+14  7.59e+01 2.29e+02  1.45e+10    16s
  16   1.42091632e+13 -2.48815523e+14  4.55e+00 9.03e+01  5.77e+09    17s
  17   2.33175002e+12 -1.52725829e+14  7.21e-01 5.37e+01  3.22e+09    17s
  18   7.85000608e+10 -2.76642319e+12  8.05e-03 4.85e-01  5.83e+07    18s
  19   1.18326658e+10 -4.70126280e+11  4.80e-09 5.49e-02  9.86e+06    19s
  20   5.52375422e+09 -2.55903717e+11  3.18e-09 2.98e-02  5.35e+06    19s
  21   1.69015891e+09 -1.47444716e+10  3.63e-09 9.77e-04  3.36e+05    20s
  22   2.32494159e+08 -9.36762800e+08  1.20e-09 2.44e-04  2.39e+04    21s
  23   1.33678578e+07 -1.00990962e+08  5.69e-09 2.44e-04  2.34e+03    21s
  24   2.05796916e+06 -2.19016929e+06  5.19e-09 2.44e-04  8.69e+01    22s
  25   4.11622098e+05 -2.42308188e+05  1.82e-09 2.44e-04  1.34e+01    23s
  26   3.29209829e+05  3.23434984e+04  8.15e-10 4.88e-04  6.07e+00    24s
  27   2.81544001e+05  1.82336563e+05  1.60e-09 2.44e-04  2.03e+00    24s
  28   2.67950005e+05  2.02471566e+05  9.35e-10 2.44e-04  1.34e+00    25s
  29   2.54856197e+05  2.14293399e+05  8.48e-10 2.44e-04  8.30e-01    26s
  30   2.45958073e+05  2.24353198e+05  1.52e-09 2.44e-04  4.42e-01    26s
  31   2.43368692e+05  2.27064438e+05  1.48e-09 2.44e-04  3.34e-01    27s
  32   2.39627786e+05  2.31532321e+05  1.10e-09 2.44e-04  1.66e-01    27s
  33   2.37347619e+05  2.32575247e+05  1.46e-09 2.44e-04  9.77e-02    28s
  34   2.35465290e+05  2.34163668e+05  4.98e-09 2.44e-04  2.67e-02    28s
  35   2.35037848e+05  2.34449618e+05  1.65e-08 2.44e-04  1.21e-02    29s
  36   2.34703652e+05  2.34626817e+05  2.35e-08 4.88e-04  1.74e-03    30s
  37   2.34669651e+05  2.34643107e+05  7.80e-09 2.44e-04  6.55e-04    31s
  38   2.34653243e+05  2.34652689e+05  3.94e-09 2.44e-04  8.63e-05    31s
  39   2.34650363e+05  2.34650498e+05  1.53e-08 2.44e-04  1.86e-05    32s
  40   2.34649721e+05  2.34649306e+05  1.77e-09 2.44e-04  2.79e-06    33s

Barrier performed 40 iterations in 32.98 seconds
Barrier solve interrupted - model solved by another algorithm


Solved with dual simplex
Solved in 30341 iterations and 33.00 seconds
Optimal objective  2.346496148e+05

Wrote result file 'TOTALnew3_resultsGUROBI.sol'

